Geometry = GenFormat {
   <<< "geo.gen"
}
Driver = {}
Hamiltonian {
  DFTB {
    SCC = Yes
    SCCTolerance = 1e-8
    MaxSCCIterations = 1000
    Charge = 0.0
    MaxAngularMomentum {
      C = "p"
      H = "s"
    }
    SlaterKosterFiles {
      Type2FileNames {
        Prefix = "slakos/origin/ob2-1-1/shift/"
        Separator = "-"
        Suffix = ".skf"
      }
    }
    RangeSeparated {
      LC {
        Screening {
          Thresholded {
            Threshold = 1e-16
          }
        }
      }
    }
  }
}

ExcitedState {
  Casida {
    TammDancoff=Yes
    NrOfExcitations = 10
    StateOfInterest = 1
    Symmetry = Singlet
    Diagonalizer {
      Stratmann {}
    }
  }
}

ParserOptions {
  ParserVersion = 13
}
Parallel {
  UseOmpThreads = Yes
}
Options {
  WriteAutotestTag = Yes
}
